VER
4

OBJSENSE
MIN

QCECONES
1 2
2
6 6
1


VAR
23 1
F 23

CON
712 4
@0:SVECQCE 667
SVECQE 23
SVECPSD 21
L= 1

OBJACOORD
2
0 1.0
1 1.0

ACOORD
56
0 0 1.0
1 2 1.0
22 3 1.0
28 4 1.0
79 5 1.0
85 6 1.0
91 7 1.0
172 8 1.0
178 9 1.0
184 10 1.0
190 11 1.0
301 12 1.0
307 13 1.0
313 14 1.0
319 15 1.0
325 16 1.0
466 17 1.0
472 18 1.0
478 19 1.0
484 20 1.0
490 21 1.0
496 22 1.0
667 1 1.0
669 2 1.0
669 4 1.0
669 7 1.0
669 11 1.0
669 16 1.0
669 22 1.0
690 2 1.0
691 3 1.0
692 4 1.0
693 5 1.0
694 6 1.0
695 7 1.0
696 8 1.0
697 9 1.0
698 10 1.0
699 11 1.0
700 12 1.0
701 13 1.0
702 14 1.0
703 15 1.0
704 16 1.0
705 17 1.0
706 18 1.0
707 19 1.0
708 20 1.0
709 21 1.0
710 22 1.0
711 2 1.0
711 4 1.0
711 7 1.0
711 11 1.0
711 16 1.0
711 22 1.0

BCOORD
2
668 -1.0
711 1.0
